
Gurobi 9.5.1 (mac64[x86]) logging started Wed Jun  8 11:28:13 2022

Set parameter LogFile to value "/Users/keyvanmajd/Documents/GitHub/NNRepLayer_v2/demos/examples/tc7_walking_example/repair_bound_constraint/repair_net/logs/opt_log_6_8_2022_11_27_57.log"
Gurobi Optimizer version 9.5.1 build v9.5.1rc2 (mac64[x86])
Thread count: 4 physical cores, 8 logical processors, using up to 8 threads
Optimize a model with 366 rows, 134 columns and 983 nonzeros
Model fingerprint: 0x1592b9ba
Model has 101 quadratic objective terms
Coefficient statistics:
  Matrix range     [6e-03, 2e+01]
  Objective range  [3e-05, 4e-01]
  QObjective range [2e-02, 2e+00]
  Bounds range     [1e+01, 4e+01]
  RHS range        [2e-03, 3e+01]
Presolve removed 225 rows and 14 columns
Presolve time: 0.00s
Presolved: 141 rows, 120 columns, 748 nonzeros
Presolved model has 101 quadratic objective terms
Ordering time: 0.00s

Barrier statistics:
 Dense cols : 11
 AA' NZ     : 9.510e+02
 Factor NZ  : 1.428e+03
 Factor Ops : 1.980e+04 (less than 1 second per iteration)
 Threads    : 1

                  Objective                Residual
Iter       Primal          Dual         Primal    Dual     Compl     Time
   0   1.61429114e+07 -1.73657152e+07  3.41e+03 4.21e+02  8.99e+05     0s
   1   5.81713457e+06 -7.02145552e+06  1.95e+03 2.41e+02  5.23e+05     0s
   2   3.80279582e+04 -1.73546042e+06  1.76e+02 2.17e+01  6.61e+04     0s
   3   1.85406707e+02 -1.42650013e+06  1.85e+01 2.28e+00  1.05e+04     0s
   4   2.81606845e+02 -8.39329795e+05  9.18e-02 1.13e-02  2.97e+03     0s
   5   2.82676130e+02 -2.36042862e+03  1.91e-04 2.36e-05  9.31e+00     0s
   6   1.03984816e+02 -2.13602548e+02  7.98e-06 9.85e-07  1.12e+00     0s
   7   2.67849488e+01 -1.75319849e+01  2.32e-08 2.86e-09  1.56e-01     0s
   8   1.76727880e+01  1.90143204e+00  7.57e-09 9.34e-10  5.55e-02     0s
   9   1.71358177e+01  1.20232047e+01  7.09e-10 8.75e-11  1.80e-02     0s
  10   1.65698224e+01  1.63475712e+01  2.00e-11 2.46e-12  7.83e-04     0s
  11   1.65323339e+01  1.65185492e+01  5.36e-13 2.58e-11  4.85e-05     0s
  12   1.65293579e+01  1.65291265e+01  6.95e-13 7.91e-12  8.15e-07     0s
  13   1.65292528e+01  1.65292421e+01  4.78e-11 3.02e-09  3.74e-08     0s
  14   1.65292468e+01  1.65292455e+01  7.64e-14 1.20e-11  4.70e-09     0s
  15   1.65292459e+01  1.65292458e+01  1.28e-13 5.09e-11  3.20e-10     0s

Barrier solved model in 15 iterations and 0.00 seconds (0.00 work units)
Optimal objective 1.65292459e+01

